c 
c U(n,d) graph
c graph gen seed     : 6661
c number of vertices : 70
c max number of edges: 2415
c Euclidean distance : 0.600000
c data structure     : dense
c
c           Graph Stats
c number of vertices  : 70
c nonisolated vertices: 70
c number of edges     : 1579
c edge density        : 0.653830
c max degree          : 65
c avg degree          : 45.11
c min degree          : 22
p col 70 1579
e 1 2
e 1 3
e 1 4
e 1 5
e 1 6
e 1 8
e 1 10
e 1 11
e 1 12
e 1 13
e 1 14
e 1 15
e 1 16
e 1 17
e 1 18
e 1 20
e 1 21
e 1 26
e 1 27
e 1 28
e 1 29
e 1 30
e 1 31
e 1 33
e 1 34
e 1 35
e 1 36
e 1 37
e 1 40
e 1 42
e 1 43
e 1 44
e 1 46
e 1 47
e 1 48
e 1 49
e 1 52
e 1 54
e 1 56
e 1 58
e 1 59
e 1 60
e 1 61
e 1 62
e 1 63
e 1 65
e 1 66
e 1 68
e 1 69
e 1 70
e 2 3
e 2 4
e 2 5
e 2 6
e 2 7
e 2 8
e 2 9
e 2 10
e 2 11
e 2 12
e 2 13
e 2 14
e 2 15
e 2 16
e 2 17
e 2 18
e 2 19
e 2 20
e 2 21
e 2 23
e 2 26
e 2 27
e 2 28
e 2 29
e 2 30
e 2 31
e 2 33
e 2 34
e 2 35
e 2 36
e 2 37
e 2 39
e 2 40
e 2 42
e 2 43
e 2 44
e 2 46
e 2 47
e 2 48
e 2 50
e 2 51
e 2 52
e 2 53
e 2 54
e 2 56
e 2 58
e 2 59
e 2 60
e 2 61
e 2 62
e 2 63
e 2 65
e 2 66
e 2 68
e 2 69
e 2 70
e 3 4
e 3 5
e 3 6
e 3 8
e 3 10
e 3 13
e 3 14
e 3 15
e 3 17
e 3 18
e 3 20
e 3 21
e 3 26
e 3 28
e 3 30
e 3 31
e 3 33
e 3 34
e 3 35
e 3 36
e 3 40
e 3 42
e 3 43
e 3 46
e 3 47
e 3 49
e 3 52
e 3 58
e 3 59
e 3 62
e 3 63
e 3 65
e 3 66
e 3 68
e 3 69
e 4 5
e 4 6
e 4 7
e 4 8
e 4 9
e 4 10
e 4 11
e 4 12
e 4 13
e 4 14
e 4 15
e 4 16
e 4 17
e 4 18
e 4 19
e 4 21
e 4 23
e 4 25
e 4 26
e 4 27
e 4 28
e 4 29
e 4 30
e 4 31
e 4 32
e 4 33
e 4 34
e 4 35
e 4 37
e 4 38
e 4 39
e 4 40
e 4 41
e 4 42
e 4 43
e 4 44
e 4 45
e 4 46
e 4 47
e 4 48
e 4 50
e 4 51
e 4 53
e 4 55
e 4 56
e 4 57
e 4 60
e 4 61
e 4 62
e 4 63
e 4 64
e 4 65
e 4 66
e 4 68
e 4 69
e 4 70
e 5 6
e 5 8
e 5 10
e 5 11
e 5 12
e 5 13
e 5 14
e 5 15
e 5 16
e 5 17
e 5 18
e 5 20
e 5 21
e 5 26
e 5 27
e 5 28
e 5 29
e 5 30
e 5 31
e 5 33
e 5 34
e 5 35
e 5 36
e 5 37
e 5 40
e 5 42
e 5 43
e 5 46
e 5 47
e 5 48
e 5 49
e 5 52
e 5 54
e 5 58
e 5 59
e 5 61
e 5 62
e 5 63
e 5 65
e 5 66
e 5 68
e 5 69
e 6 8
e 6 10
e 6 11
e 6 12
e 6 13
e 6 14
e 6 15
e 6 17
e 6 18
e 6 20
e 6 21
e 6 26
e 6 27
e 6 28
e 6 30
e 6 31
e 6 33
e 6 34
e 6 35
e 6 36
e 6 37
e 6 40
e 6 42
e 6 43
e 6 46
e 6 47
e 6 48
e 6 50
e 6 52
e 6 58
e 6 59
e 6 61
e 6 62
e 6 63
e 6 65
e 6 66
e 6 68
e 6 69
e 7 8
e 7 9
e 7 10
e 7 11
e 7 12
e 7 14
e 7 16
e 7 17
e 7 19
e 7 21
e 7 22
e 7 23
e 7 24
e 7 27
e 7 28
e 7 29
e 7 33
e 7 34
e 7 38
e 7 39
e 7 40
e 7 41
e 7 42
e 7 44
e 7 45
e 7 46
e 7 47
e 7 48
e 7 50
e 7 51
e 7 53
e 7 55
e 7 56
e 7 57
e 7 60
e 7 61
e 7 63
e 7 64
e 7 66
e 7 67
e 7 69
e 7 70
e 8 10
e 8 12
e 8 14
e 8 15
e 8 16
e 8 17
e 8 20
e 8 21
e 8 24
e 8 27
e 8 28
e 8 29
e 8 30
e 8 31
e 8 33
e 8 34
e 8 36
e 8 40
e 8 42
e 8 43
e 8 44
e 8 46
e 8 48
e 8 49
e 8 52
e 8 54
e 8 58
e 8 59
e 8 60
e 8 61
e 8 63
e 8 65
e 8 66
e 8 67
e 8 69
e 8 70
e 9 10
e 9 11
e 9 12
e 9 13
e 9 14
e 9 17
e 9 19
e 9 21
e 9 22
e 9 23
e 9 24
e 9 25
e 9 26
e 9 27
e 9 28
e 9 29
e 9 31
e 9 32
e 9 38
e 9 39
e 9 40
e 9 41
e 9 42
e 9 44
e 9 45
e 9 46
e 9 47
e 9 48
e 9 50
e 9 51
e 9 53
e 9 55
e 9 56
e 9 57
e 9 60
e 9 61
e 9 62
e 9 63
e 9 64
e 9 66
e 9 67
e 9 69
e 9 70
e 10 11
e 10 12
e 10 13
e 10 14
e 10 15
e 10 16
e 10 17
e 10 20
e 10 21
e 10 22
e 10 24
e 10 27
e 10 28
e 10 29
e 10 30
e 10 31
e 10 33
e 10 34
e 10 35
e 10 36
e 10 38
e 10 39
e 10 40
e 10 41
e 10 42
e 10 43
e 10 44
e 10 45
e 10 46
e 10 47
e 10 48
e 10 49
e 10 50
e 10 51
e 10 52
e 10 53
e 10 54
e 10 56
e 10 57
e 10 58
e 10 59
e 10 60
e 10 61
e 10 63
e 10 64
e 10 65
e 10 66
e 10 67
e 10 69
e 10 70
e 11 12
e 11 13
e 11 14
e 11 15
e 11 17
e 11 19
e 11 21
e 11 23
e 11 25
e 11 26
e 11 27
e 11 28
e 11 30
e 11 31
e 11 32
e 11 33
e 11 34
e 11 35
e 11 37
e 11 38
e 11 39
e 11 40
e 11 41
e 11 42
e 11 43
e 11 44
e 11 45
e 11 46
e 11 47
e 11 48
e 11 50
e 11 51
e 11 53
e 11 55
e 11 56
e 11 57
e 11 62
e 11 63
e 11 64
e 11 65
e 11 66
e 11 68
e 11 69
e 11 70
e 12 14
e 12 16
e 12 17
e 12 19
e 12 20
e 12 21
e 12 22
e 12 24
e 12 27
e 12 28
e 12 29
e 12 30
e 12 33
e 12 34
e 12 36
e 12 38
e 12 39
e 12 40
e 12 41
e 12 42
e 12 43
e 12 44
e 12 45
e 12 46
e 12 47
e 12 48
e 12 50
e 12 51
e 12 52
e 12 53
e 12 54
e 12 56
e 12 57
e 12 58
e 12 59
e 12 60
e 12 61
e 12 63
e 12 64
e 12 65
e 12 66
e 12 67
e 12 69
e 12 70
e 13 14
e 13 15
e 13 17
e 13 18
e 13 19
e 13 21
e 13 23
e 13 25
e 13 26
e 13 27
e 13 28
e 13 30
e 13 31
e 13 32
e 13 33
e 13 34
e 13 35
e 13 37
e 13 38
e 13 39
e 13 40
e 13 41
e 13 42
e 13 43
e 13 44
e 13 46
e 13 47
e 13 48
e 13 50
e 13 51
e 13 53
e 13 55
e 13 56
e 13 62
e 13 63
e 13 64
e 13 65
e 13 66
e 13 68
e 13 69
e 13 70
e 14 15
e 14 16
e 14 17
e 14 18
e 14 20
e 14 21
e 14 26
e 14 27
e 14 28
e 14 29
e 14 30
e 14 31
e 14 33
e 14 34
e 14 35
e 14 36
e 14 37
e 14 39
e 14 40
e 14 42
e 14 43
e 14 44
e 14 46
e 14 47
e 14 48
e 14 49
e 14 50
e 14 51
e 14 52
e 14 53
e 14 54
e 14 56
e 14 58
e 14 59
e 14 60
e 14 61
e 14 62
e 14 63
e 14 65
e 14 66
e 14 68
e 14 69
e 14 70
e 15 17
e 15 18
e 15 21
e 15 26
e 15 28
e 15 30
e 15 31
e 15 33
e 15 34
e 15 35
e 15 37
e 15 40
e 15 42
e 15 43
e 15 46
e 15 47
e 15 52
e 15 58
e 15 62
e 15 63
e 15 65
e 15 66
e 15 68
e 15 69
e 16 17
e 16 20
e 16 21
e 16 22
e 16 24
e 16 27
e 16 28
e 16 29
e 16 30
e 16 33
e 16 34
e 16 36
e 16 39
e 16 40
e 16 42
e 16 44
e 16 46
e 16 48
e 16 49
e 16 52
e 16 54
e 16 58
e 16 59
e 16 60
e 16 61
e 16 63
e 16 65
e 16 66
e 16 67
e 16 69
e 16 70
e 17 19
e 17 20
e 17 21
e 17 22
e 17 23
e 17 24
e 17 26
e 17 27
e 17 28
e 17 29
e 17 30
e 17 31
e 17 33
e 17 34
e 17 35
e 17 36
e 17 37
e 17 38
e 17 39
e 17 40
e 17 41
e 17 42
e 17 43
e 17 44
e 17 45
e 17 46
e 17 47
e 17 48
e 17 50
e 17 51
e 17 52
e 17 53
e 17 54
e 17 55
e 17 56
e 17 57
e 17 58
e 17 59
e 17 60
e 17 61
e 17 62
e 17 63
e 17 64
e 17 65
e 17 66
e 17 67
e 17 68
e 17 69
e 17 70
e 18 26
e 18 30
e 18 31
e 18 33
e 18 34
e 18 35
e 18 37
e 18 40
e 18 43
e 18 47
e 18 62
e 18 63
e 18 65
e 18 66
e 18 68
e 18 69
e 19 22
e 19 23
e 19 25
e 19 26
e 19 27
e 19 28
e 19 31
e 19 32
e 19 35
e 19 37
e 19 38
e 19 39
e 19 40
e 19 41
e 19 42
e 19 44
e 19 45
e 19 46
e 19 47
e 19 48
e 19 50
e 19 51
e 19 53
e 19 55
e 19 56
e 19 57
e 19 62
e 19 63
e 19 64
e 19 66
e 19 69
e 19 70
e 20 21
e 20 29
e 20 30
e 20 33
e 20 34
e 20 36
e 20 40
e 20 42
e 20 46
e 20 48
e 20 49
e 20 52
e 20 54
e 20 58
e 20 59
e 20 61
e 20 65
e 20 66
e 21 24
e 21 26
e 21 27
e 21 28
e 21 29
e 21 30
e 21 31
e 21 33
e 21 34
e 21 35
e 21 36
e 21 39
e 21 40
e 21 42
e 21 43
e 21 44
e 21 46
e 21 47
e 21 48
e 21 49
e 21 52
e 21 53
e 21 54
e 21 56
e 21 58
e 21 59
e 21 60
e 21 61
e 21 62
e 21 63
e 21 65
e 21 66
e 21 68
e 21 69
e 21 70
e 22 24
e 22 27
e 22 28
e 22 29
e 22 38
e 22 39
e 22 41
e 22 42
e 22 44
e 22 45
e 22 46
e 22 48
e 22 50
e 22 51
e 22 53
e 22 56
e 22 57
e 22 60
e 22 61
e 22 64
e 22 67
e 22 70
e 23 25
e 23 26
e 23 27
e 23 28
e 23 31
e 23 32
e 23 35
e 23 37
e 23 38
e 23 39
e 23 40
e 23 41
e 23 42
e 23 43
e 23 44
e 23 45
e 23 46
e 23 47
e 23 50
e 23 51
e 23 53
e 23 55
e 23 56
e 23 57
e 23 62
e 23 63
e 23 64
e 23 66
e 23 69
e 23 70
e 24 27
e 24 28
e 24 29
e 24 39
e 24 42
e 24 44
e 24 45
e 24 46
e 24 48
e 24 52
e 24 53
e 24 54
e 24 56
e 24 57
e 24 58
e 24 59
e 24 60
e 24 61
e 24 67
e 24 69
e 24 70
e 25 26
e 25 28
e 25 31
e 25 32
e 25 35
e 25 37
e 25 38
e 25 39
e 25 41
e 25 45
e 25 47
e 25 50
e 25 51
e 25 53
e 25 55
e 25 56
e 25 57
e 25 62
e 25 63
e 25 64
e 25 69
e 25 70
e 26 28
e 26 30
e 26 31
e 26 32
e 26 33
e 26 34
e 26 35
e 26 37
e 26 38
e 26 39
e 26 40
e 26 41
e 26 42
e 26 43
e 26 46
e 26 47
e 26 50
e 26 51
e 26 53
e 26 55
e 26 56
e 26 62
e 26 63
e 26 64
e 26 65
e 26 66
e 26 68
e 26 69
e 27 28
e 27 29
e 27 30
e 27 31
e 27 33
e 27 34
e 27 38
e 27 39
e 27 40
e 27 41
e 27 42
e 27 43
e 27 44
e 27 45
e 27 46
e 27 47
e 27 48
e 27 50
e 27 51
e 27 52
e 27 53
e 27 54
e 27 55
e 27 56
e 27 57
e 27 58
e 27 59
e 27 60
e 27 61
e 27 62
e 27 63
e 27 64
e 27 65
e 27 66
e 27 67
e 27 69
e 27 70
e 28 29
e 28 30
e 28 31
e 28 33
e 28 34
e 28 35
e 28 37
e 28 38
e 28 39
e 28 40
e 28 41
e 28 42
e 28 43
e 28 44
e 28 45
e 28 46
e 28 47
e 28 48
e 28 50
e 28 51
e 28 52
e 28 53
e 28 55
e 28 56
e 28 57
e 28 58
e 28 59
e 28 60
e 28 61
e 28 62
e 28 63
e 28 64
e 28 65
e 28 66
e 28 68
e 28 69
e 28 70
e 29 30
e 29 33
e 29 34
e 29 36
e 29 39
e 29 40
e 29 42
e 29 44
e 29 45
e 29 46
e 29 48
e 29 49
e 29 52
e 29 53
e 29 54
e 29 56
e 29 57
e 29 58
e 29 59
e 29 60
e 29 61
e 29 63
e 29 65
e 29 66
e 29 67
e 29 69
e 29 70
e 30 31
e 30 33
e 30 34
e 30 35
e 30 36
e 30 37
e 30 40
e 30 42
e 30 43
e 30 44
e 30 46
e 30 47
e 30 48
e 30 49
e 30 52
e 30 54
e 30 58
e 30 59
e 30 61
e 30 62
e 30 63
e 30 65
e 30 66
e 30 68
e 30 69
e 31 33
e 31 34
e 31 35
e 31 37
e 31 38
e 31 39
e 31 40
e 31 41
e 31 42
e 31 43
e 31 44
e 31 46
e 31 47
e 31 48
e 31 50
e 31 51
e 31 53
e 31 55
e 31 56
e 31 61
e 31 62
e 31 63
e 31 64
e 31 65
e 31 66
e 31 68
e 31 69
e 31 70
e 32 37
e 32 38
e 32 39
e 32 41
e 32 45
e 32 47
e 32 50
e 32 51
e 32 53
e 32 55
e 32 56
e 32 57
e 32 62
e 32 64
e 32 70
e 33 34
e 33 35
e 33 36
e 33 39
e 33 40
e 33 42
e 33 43
e 33 44
e 33 46
e 33 47
e 33 48
e 33 49
e 33 52
e 33 54
e 33 56
e 33 58
e 33 59
e 33 60
e 33 61
e 33 62
e 33 63
e 33 65
e 33 66
e 33 68
e 33 69
e 33 70
e 34 35
e 34 36
e 34 37
e 34 39
e 34 40
e 34 42
e 34 43
e 34 44
e 34 46
e 34 47
e 34 48
e 34 49
e 34 50
e 34 52
e 34 53
e 34 54
e 34 56
e 34 58
e 34 59
e 34 60
e 34 61
e 34 62
e 34 63
e 34 65
e 34 66
e 34 68
e 34 69
e 34 70
e 35 37
e 35 40
e 35 42
e 35 43
e 35 46
e 35 47
e 35 50
e 35 51
e 35 53
e 35 55
e 35 56
e 35 62
e 35 63
e 35 65
e 35 66
e 35 68
e 35 69
e 36 40
e 36 42
e 36 46
e 36 48
e 36 49
e 36 52
e 36 54
e 36 58
e 36 59
e 36 61
e 36 65
e 37 38
e 37 40
e 37 41
e 37 42
e 37 43
e 37 47
e 37 50
e 37 51
e 37 53
e 37 55
e 37 56
e 37 62
e 37 63
e 37 64
e 37 65
e 37 66
e 37 68
e 37 69
e 38 39
e 38 40
e 38 41
e 38 42
e 38 44
e 38 45
e 38 46
e 38 47
e 38 48
e 38 50
e 38 51
e 38 53
e 38 55
e 38 56
e 38 57
e 38 60
e 38 62
e 38 63
e 38 64
e 38 66
e 38 69
e 38 70
e 39 40
e 39 41
e 39 42
e 39 44
e 39 45
e 39 46
e 39 47
e 39 48
e 39 50
e 39 51
e 39 53
e 39 55
e 39 56
e 39 57
e 39 60
e 39 61
e 39 62
e 39 63
e 39 64
e 39 66
e 39 67
e 39 69
e 39 70
e 40 41
e 40 42
e 40 43
e 40 44
e 40 46
e 40 47
e 40 48
e 40 50
e 40 51
e 40 52
e 40 53
e 40 54
e 40 55
e 40 56
e 40 57
e 40 58
e 40 59
e 40 60
e 40 61
e 40 62
e 40 63
e 40 64
e 40 65
e 40 66
e 40 68
e 40 69
e 40 70
e 41 42
e 41 44
e 41 45
e 41 46
e 41 47
e 41 48
e 41 50
e 41 51
e 41 53
e 41 55
e 41 56
e 41 57
e 41 60
e 41 61
e 41 62
e 41 63
e 41 64
e 41 66
e 41 69
e 41 70
e 42 43
e 42 44
e 42 45
e 42 46
e 42 47
e 42 48
e 42 50
e 42 51
e 42 52
e 42 53
e 42 54
e 42 55
e 42 56
e 42 57
e 42 58
e 42 59
e 42 60
e 42 61
e 42 62
e 42 63
e 42 64
e 42 65
e 42 66
e 42 67
e 42 68
e 42 69
e 42 70
e 43 46
e 43 47
e 43 48
e 43 50
e 43 51
e 43 56
e 43 58
e 43 61
e 43 62
e 43 63
e 43 65
e 43 66
e 43 68
e 43 69
e 44 45
e 44 46
e 44 47
e 44 48
e 44 50
e 44 51
e 44 52
e 44 53
e 44 54
e 44 55
e 44 56
e 44 57
e 44 58
e 44 59
e 44 60
e 44 61
e 44 63
e 44 64
e 44 66
e 44 67
e 44 69
e 44 70
e 45 46
e 45 47
e 45 48
e 45 50
e 45 51
e 45 53
e 45 55
e 45 56
e 45 57
e 45 60
e 45 61
e 45 62
e 45 63
e 45 64
e 45 67
e 45 69
e 45 70
e 46 47
e 46 48
e 46 49
e 46 50
e 46 51
e 46 52
e 46 53
e 46 54
e 46 56
e 46 57
e 46 58
e 46 59
e 46 60
e 46 61
e 46 62
e 46 63
e 46 64
e 46 65
e 46 66
e 46 67
e 46 69
e 46 70
e 47 48
e 47 50
e 47 51
e 47 53
e 47 55
e 47 56
e 47 57
e 47 61
e 47 62
e 47 63
e 47 64
e 47 65
e 47 66
e 47 68
e 47 69
e 47 70
e 48 49
e 48 50
e 48 51
e 48 52
e 48 53
e 48 54
e 48 56
e 48 57
e 48 58
e 48 59
e 48 60
e 48 61
e 48 63
e 48 64
e 48 65
e 48 66
e 48 67
e 48 69
e 48 70
e 49 52
e 49 54
e 49 58
e 49 59
e 49 61
e 49 65
e 50 51
e 50 53
e 50 55
e 50 56
e 50 57
e 50 60
e 50 62
e 50 63
e 50 64
e 50 66
e 50 69
e 50 70
e 51 53
e 51 55
e 51 56
e 51 57
e 51 60
e 51 61
e 51 62
e 51 63
e 51 64
e 51 66
e 51 69
e 51 70
e 52 54
e 52 58
e 52 59
e 52 60
e 52 61
e 52 63
e 52 65
e 52 66
e 52 69
e 53 55
e 53 56
e 53 57
e 53 60
e 53 61
e 53 62
e 53 63
e 53 64
e 53 66
e 53 67
e 53 69
e 53 70
e 54 58
e 54 59
e 54 60
e 54 61
e 54 65
e 55 56
e 55 57
e 55 62
e 55 63
e 55 64
e 55 69
e 55 70
e 56 57
e 56 60
e 56 61
e 56 62
e 56 63
e 56 64
e 56 66
e 56 67
e 56 69
e 56 70
e 57 60
e 57 61
e 57 62
e 57 63
e 57 64
e 57 67
e 57 69
e 57 70
e 58 59
e 58 60
e 58 61
e 58 63
e 58 65
e 58 66
e 58 69
e 59 60
e 59 61
e 59 63
e 59 65
e 59 66
e 59 69
e 60 61
e 60 63
e 60 64
e 60 66
e 60 67
e 60 69
e 60 70
e 61 63
e 61 64
e 61 65
e 61 66
e 61 67
e 61 69
e 61 70
e 62 63
e 62 64
e 62 65
e 62 66
e 62 68
e 62 69
e 62 70
e 63 64
e 63 65
e 63 66
e 63 68
e 63 69
e 63 70
e 64 66
e 64 69
e 64 70
e 65 66
e 65 68
e 65 69
e 66 68
e 66 69
e 66 70
e 67 70
e 68 69
e 69 70
